; ./prepared/seahorn/./sv_comp_flat_small/ldv-linux-3.4-simple/32_1_cilled_true-unreach-call_ok_nondet_linux-3.4-32_1-drivers--hid--hid-waltop.ko-ldv_main0_sequence_infinite_withcheck_stateful.cil.out.c.flat_000.smt2
(set-logic HORN)


(declare-fun |main_1| ( Int Bool ) Bool)

(assert
  (forall ( (A Bool) (v_1 Int) ) 
    (=>
      (and
        (and true (= 0 v_1))
      )
      (main_1 v_1 A)
    )
  )
)
(assert
  (forall ( (A Int) (B Int) (C Int) (D Int) (E Int) (F Int) (G Int) (H Int) (I Int) (J Int) (K Int) (L Int) (M Int) (N Int) (O Int) (P Int) (Q Int) (R Int) (S Int) (T Bool) (U Int) (V Int) (W Int) (X Int) (Y Int) (Z Int) (A1 Int) (B1 Int) (C1 Int) (D1 Int) (E1 Int) (F1 Bool) (G1 Int) (H1 Bool) (I1 Bool) (J1 Bool) (K1 Int) (L1 Int) (M1 Int) (N1 Int) (O1 Int) (P1 Int) (Q1 Int) (R1 Bool) (S1 Bool) (T1 Bool) (U1 Bool) (V1 Bool) (W1 Bool) (v_49 Int) (v_50 Int) ) 
    (=>
      (and
        (main_1 v_49 I1)
        (and (= 0 v_49)
     (or (not F1) (not U1) (not R1))
     (or H1 (not S1) (not J1))
     (or (not T1) (= T (= L1 8)))
     (or (not T1) (= D1 C1))
     (or (not T1) (= B1 A1))
     (or (not T1) (= R (+ 16 O)))
     (or (not T1) (= P (+ 20 O)))
     (or (not T1) (= J (+ 44 I)))
     (or (not T1) (= C1 (+ 7104 Z)))
     (or (not T1) (= A1 (+ 6328 Z)))
     (or (not T1) (= Y (+ 7 M1)))
     (or (not T1) (= X (+ 6 M1)))
     (or (not T1) (= V U))
     (or (not T1) (= U (+ 6328 L)))
     (or (not T1) (= S R))
     (or (not T1) (= Q P))
     (or (not T1) (= N M))
     (or (not T1) (= M (+ 44 L)))
     (or (not T1) (= K J))
     (or (not T1) (= H F))
     (or (not T1) (= E D))
     (or (not T1) (= D (+ 7112 A)))
     (or (not T1) (= Z K1))
     (or (not T1) (= W (+ 1 M1)))
     (or (not T1) (= O N1))
     (or (not T1) (= L O1))
     (or (not T1) (= I P1))
     (or (not T1) (= G F))
     (or (not T1) (= F (+ 7104 A)))
     (or (not T1) (= C B))
     (or (not T1) (= B (+ 6328 A)))
     (or (not T1) (= A Q1))
     (or (not T1) (and R1 U1))
     (or (not V1) (and W1 T1))
     (or (not R1) (= F1 (= E1 0)))
     (or (not R1) (and J1 S1))
     (= V1 true)
     (= H1 (= G1 0))
     (= 1 v_50))
      )
      (main_1 v_50 T)
    )
  )
)
(assert
  (forall ( (A Int) (B Bool) (C Int) (D Bool) (E Bool) (F Bool) (G Bool) (H Bool) (I Bool) (J Bool) (K Bool) (L Bool) (M Bool) (N Bool) (O Bool) (v_15 Int) (v_16 Int) ) 
    (=>
      (and
        (main_1 v_15 E)
        (and (= 0 v_15)
     (or (not K) (and I L) (and F M))
     (or (not D) (not F) (not M))
     (or D (not H) (not F))
     (or B (not G) (not J))
     (or (not G) (= B (= A 0)))
     (or (not G) (and F H))
     (or (not N) (and K O))
     (or (not I) (and J G))
     (= N true)
     (not K)
     (= D (= C 0))
     (= 2 v_16))
      )
      (main_1 v_16 E)
    )
  )
)
(assert
  (forall ( (A Int) (B Bool) (C Bool) (D Int) (E Int) (F Int) (G Int) (H Bool) (I Bool) (J Int) (K Int) (L Int) (M Int) (N Int) (O Int) (P Bool) (Q Int) (R Int) (S Int) (T Int) (U Bool) (V Bool) (W Bool) (X Int) (Y Bool) (Z Bool) (A1 Int) (B1 Bool) (C1 Bool) (D1 Int) (E1 Bool) (F1 Bool) (G1 Bool) (H1 Int) (I1 Bool) (J1 Bool) (K1 Int) (L1 Bool) (M1 Int) (N1 Bool) (O1 Bool) (P1 Bool) (Q1 Bool) (R1 Bool) (S1 Bool) (T1 Int) (U1 Int) (V1 Int) (W1 Int) (X1 Int) (Y1 Int) (Z1 Int) (A2 Bool) (B2 Int) (C2 Bool) (D2 Bool) (E2 Int) (F2 Bool) (G2 Int) (H2 Bool) (I2 Int) (J2 Int) (K2 Int) (L2 Int) (M2 Bool) (N2 Bool) (O2 Bool) (P2 Bool) (Q2 Bool) (R2 Int) (S2 Bool) (T2 Bool) (U2 Bool) (V2 Bool) (W2 Bool) (X2 Bool) (Y2 Bool) (Z2 Bool) (A3 Bool) (B3 Bool) (C3 Bool) (D3 Bool) (E3 Bool) (F3 Bool) (G3 Int) (H3 Bool) (I3 Bool) (J3 Bool) (K3 Bool) (L3 Bool) (M3 Bool) (N3 Bool) (O3 Bool) (P3 Int) (Q3 Bool) (R3 Bool) (S3 Bool) (T3 Bool) (U3 Bool) (V3 Bool) (W3 Bool) (X3 Bool) (Y3 Bool) (Z3 Bool) (A4 Bool) (B4 Bool) (C4 Bool) (D4 Bool) (E4 Bool) (F4 Bool) (G4 Bool) (H4 Bool) (I4 Bool) (J4 Bool) (K4 Bool) (L4 Bool) (M4 Bool) (N4 Bool) (O4 Bool) (P4 Bool) (Q4 Bool) (R4 Bool) (S4 Bool) (T4 Bool) (U4 Bool) (V4 Bool) (W4 Bool) (X4 Bool) (Y4 Bool) (Z4 Bool) (A5 Bool) (B5 Bool) (C5 Bool) (D5 Bool) (E5 Bool) (F5 Bool) (G5 Bool) (H5 Bool) (I5 Int) (J5 Bool) (K5 Bool) (L5 Bool) (M5 Bool) (N5 Int) (O5 Bool) (P5 Bool) (Q5 Bool) (R5 Bool) (S5 Bool) (T5 Bool) (U5 Bool) (V5 Int) (W5 Bool) (X5 Bool) (Y5 Int) (Z5 Bool) (A6 Bool) (B6 Bool) (C6 Bool) (D6 Bool) (E6 Int) (F6 Int) (G6 Bool) (H6 Bool) (I6 Bool) (J6 Bool) (K6 Bool) (L6 Bool) (M6 Bool) (N6 Bool) (O6 Int) (P6 Int) (Q6 Int) (R6 Bool) (S6 Bool) (T6 Bool) (U6 Bool) (V6 Bool) (W6 Bool) (X6 Bool) (Y6 Bool) (Z6 Bool) (A7 Bool) (B7 Bool) (C7 Bool) (D7 Bool) (E7 Bool) (F7 Bool) (G7 Bool) (H7 Bool) (I7 Bool) (J7 Bool) (K7 Bool) (L7 Bool) (M7 Bool) (N7 Bool) (O7 Bool) (P7 Bool) (Q7 Bool) (R7 Bool) (S7 Bool) (T7 Bool) (v_202 Int) (v_203 Int) ) 
    (=>
      (and
        (main_1 v_202 P2)
        (let ((a!1 (or (not S3) (not (= (<= 1281 P3) P1))))
      (a!2 (or (not N3) (not (= (<= 56 P3) R1))))
      (a!3 (or (not L3) (not (= (<= 1 R2) S1))))
      (a!4 (or (not S2) (not (= (<= 3 R2) N2))))
      (a!5 (or (not M4) (not (= (<= 55 P3) F1))))
      (a!6 (or (not K4) (not (= (<= 52 P3) G1))))
      (a!7 (or (not Q3) (not (= (<= 1280 P3) Q1)))))
  (and (= 1 v_202)
       (or (and G4 D7)
           (and Y4 K7)
           (and S4 L7)
           (and K6 O7)
           (and G6 P7)
           (and E5 Q7)
           (not R6)
           (and R7 U2)
           (and N7 U3)
           (and M7 E4)
           (and J7 A5)
           (and H7 U4)
           (and F7 O4)
           (and B7 W3)
           (and Z6 A4)
           (and X6 Y2)
           (and W6 A3)
           (and V6 C3)
           (and S6 W2)
           (and T6 J3)
           (and U6 H3)
           (and Y6 C4)
           (and A7 Y3)
           (and C7 I4)
           (and E7 Q4)
           (and G7 W4)
           (and I7 C5))
       (or (and B6 L6) (not K6) (and N6 I6) (and M6 O5))
       (or O2 (not Q2) (not M3))
       (or (not O2) (not Q2) (not T2))
       (or N2 (not S2) (not Z2))
       (or (not N2) (not S2) (not V2))
       (or M2 (not U2) (not X2))
       (or H2 (not Y2) (not B3))
       (or F2 (not A3) (not D3))
       (or D2 (not C3) (not F3))
       (or A2 (not E3) (not K3))
       (or (not A2) (not E3) (not I3))
       (or (not S1) (not L3) (not O3))
       (or R1 (not N3) (not L4))
       (or (not R1) (not N3) (not R3))
       (or P1 (not S3) (not B4))
       (or (not P1) (not S3) (not V3))
       (or J1 (not E4) (not H4))
       (or E1 (not O4) (not R4))
       (or (not M2) (not R7) (not U2))
       (or (not J1) (not E4) (not M7))
       (or (not F2) (not A3) (not W6))
       (or (= J E6) (not Z5) (not C6))
       (or (= E6 Y5) (not Z5) (not C6))
       (or (not S5) (and Q5 T5) (and J5 U5))
       (or (= J F6) (not S5) (not D6))
       (or (= F6 V5) (not S5) (not D6))
       (or (not I) (not S5) (not D6))
       (or I (not S5) (not X5))
       (or P (not L5) (not R5))
       (or (not P) (not L5) (not P5))
       (or (not U) (not J5) (not U5))
       (or U (not J5) (not M5))
       (or (not V) (not G5) (not K5))
       (or (not W) (not E5) (not Q7))
       (or W (not E5) (not H5))
       (or Y (not A5) (not D5))
       (or (not Z) (not Y4) (not K7))
       (or Z (not Y4) (not B5))
       (or B1 (not U4) (not X4))
       (or (not S4) (not C1) (not L7))
       (or (not S4) C1 (not V4))
       (or (not M4) F1 (not T4))
       (or (not M4) (not F1) (not P4))
       (or (not K4) G1 (not Z4))
       (or (not N4) (not K4) (not G1))
       (or (not G4) (not I1) (not D7))
       (or (not G4) (not J4) I1)
       (or (not D4) L1 (not A4))
       (or (not Z3) N1 (not W3))
       (or (not X3) (not U3) O1)
       (or (not Q3) Q1 (not F4))
       (or (not T3) (not Q3) (not Q1))
       (or (not N7) (not U3) (not O1))
       (or (not J7) (not A5) (not Y))
       (or (not B1) (not U4) (not H7))
       (or (not E1) (not O4) (not F7))
       (or (not N1) (not W3) (not B7))
       (or (not L1) (not A4) (not Z6))
       (or (not H2) (not Y2) (not X6))
       (or (not D2) (not C3) (not V6))
       (or (not B) (not R6) (not T7))
       (or (not N6) (not I6) (= K Q6))
       (or (not N6) (not I6) (= Q6 (- 12)))
       (or (not M6) (not O5) (= K P6))
       (or (not M6) (not O5) (= P6 N5))
       (or C (not K6) (not O7))
       (or (not J6) (not G5) V)
       (or (not H6) (not W5) H)
       (or (not B6) (and Z5 C6) (and S5 D6))
       (or (not B6) (= K O6) (not L6))
       (or (not B6) (= O6 J) (not L6))
       (or (not A6) (not W5) (not H))
       (or (not F5) S1 (not L3))
       (or (not W4) (and X4 U4))
       (or (not U4) (= B1 (= A1 269)))
       (or (not U4) (and S4 V4))
       (or (not Q4) (and O4 R4))
       (or (not O4) (= E1 (= D1 241)))
       (or (not O4) (and M4 P4))
       (or (not I4) (and G4 J4))
       (or (not E4) (= J1 (= P3 56)))
       (or (not E4) (and Q3 F4))
       (or (not A4) (= L1 (= K1 309)))
       (or (not A4) (and S3 B4))
       (or (not W3) (= N1 (= M1 300)))
       (or (not W3) (and U3 X3))
       a!1
       (or (not S3) (and Q3 T3))
       a!2
       (or (not N3) (and L3 O3))
       a!3
       (or (not L3) (and Q2 M3))
       (or (not J3) (= V1 U1))
       (or (not J3) (= U1 (+ 1 T1)))
       (or (not J3) (= T1 G3))
       (or (not J3) (and E3 K3))
       (or (not H3) (= Y1 X1))
       (or (not H3) (= X1 (+ 1 W1)))
       (or (not H3) (= W1 G3))
       (or (not H3) (and E3 I3))
       (or (not E3) (= A2 (= Z1 0)))
       (or (not E3) (and C3 F3))
       (or (not C3) (= D2 (and C2 P2)))
       (or (not C3) (= C2 (= B2 16)))
       (or (not C3) (and A3 D3))
       (or (not A3) (= F2 (= E2 0)))
       (or (not A3) (and Y2 B3))
       (or (not Y2) (= H2 (= G2 56)))
       (or (not Y2) (and S2 Z2))
       (or (not W2) (= L2 K2))
       (or (not W2) (= K2 (+ 8 J2)))
       (or (not W2) (= J2 I2))
       (or (not W2) (and U2 X2))
       (or (not U2) (= M2 (= R2 3)))
       (or (not U2) (and S2 V2))
       a!4
       (or (not S2) (and Q2 T2))
       (or (not I6) (and J6 G5))
       (or (not Z5) (= G F))
       (or (not Z5) (= F (+ 8 E)))
       (or (not Z5) (= E D))
       (or (not Z5) (and A6 W5))
       (or (not W5) (= H (= Y5 0)))
       (or (not W5) (and S5 X5))
       (or (not S5) (= I (= V5 0)))
       (or (not O5) (and L5 P5))
       (or (not L5) (= P (= N5 0)))
       (or (not L5) (= O N))
       (or (not L5) (= N (+ 48 M)))
       (or (not L5) (= M L))
       (or (not L5) (and J5 M5))
       (or (not J5) (= U (= T 0)))
       (or (not J5) (= S R))
       (or (not J5) (= R (+ 1 Q)))
       (or (not J5) (= Q I5))
       (or (not J5) (and G5 K5))
       (or (not G5) (= V (= I5 0)))
       (or (not G5) (and E5 H5))
       (or (not E5) (= W (= R2 0)))
       (or (not E5) (and F5 L3))
       (or (not C5) (and A5 D5))
       (or (not A5) (= Y (= X 222)))
       (or (not A5) (and Y4 B5))
       (or (not Y4) (= Z (= P3 50)))
       (or (not Y4) (and K4 Z4))
       (or (not S4) (= C1 (= P3 52)))
       (or (not S4) (and M4 T4))
       a!5
       (or (not M4) (and K4 N4))
       a!6
       (or (not K4) (and N3 L4))
       (or (not G4) (= I1 (= H1 241)))
       (or (not G4) (and E4 H4))
       (or (not C4) (and D4 A4))
       (or (not Y3) (and Z3 W3))
       (or (not U3) (= O1 (= P3 1281)))
       (or (not U3) (and S3 V3))
       a!7
       (or (not Q3) (and N3 R3))
       (or (not S7) (and R6 T7))
       (or (not R6) (= B (= A 0)))
       (or (not K6) (= C (= K 0)))
       (or (not G6) (and H6 W5))
       (or (not Q5) (and L5 R5))
       (= S7 true)
       (not (= (<= 2 R2) O2))
       (= 1 v_203)))
      )
      (main_1 v_203 P2)
    )
  )
)
(assert
  (forall ( (A Int) (B Bool) (C Bool) (D Int) (E Int) (F Int) (G Int) (H Bool) (I Bool) (J Int) (K Int) (L Int) (M Int) (N Int) (O Int) (P Bool) (Q Int) (R Int) (S Int) (T Int) (U Bool) (V Bool) (W Bool) (X Int) (Y Bool) (Z Bool) (A1 Int) (B1 Bool) (C1 Bool) (D1 Int) (E1 Bool) (F1 Bool) (G1 Bool) (H1 Int) (I1 Bool) (J1 Bool) (K1 Int) (L1 Bool) (M1 Int) (N1 Bool) (O1 Bool) (P1 Bool) (Q1 Bool) (R1 Bool) (S1 Bool) (T1 Int) (U1 Int) (V1 Int) (W1 Int) (X1 Int) (Y1 Int) (Z1 Int) (A2 Bool) (B2 Int) (C2 Bool) (D2 Bool) (E2 Int) (F2 Bool) (G2 Int) (H2 Bool) (I2 Int) (J2 Int) (K2 Int) (L2 Int) (M2 Bool) (N2 Bool) (O2 Bool) (P2 Bool) (Q2 Bool) (R2 Bool) (S2 Bool) (T2 Bool) (U2 Bool) (V2 Bool) (W2 Int) (X2 Bool) (Y2 Bool) (Z2 Bool) (A3 Bool) (B3 Bool) (C3 Bool) (D3 Bool) (E3 Bool) (F3 Bool) (G3 Bool) (H3 Bool) (I3 Bool) (J3 Bool) (K3 Bool) (L3 Int) (M3 Bool) (N3 Bool) (O3 Bool) (P3 Bool) (Q3 Bool) (R3 Bool) (S3 Bool) (T3 Bool) (U3 Int) (V3 Bool) (W3 Bool) (X3 Bool) (Y3 Bool) (Z3 Bool) (A4 Bool) (B4 Bool) (C4 Bool) (D4 Bool) (E4 Bool) (F4 Bool) (G4 Bool) (H4 Bool) (I4 Bool) (J4 Bool) (K4 Bool) (L4 Bool) (M4 Bool) (N4 Bool) (O4 Bool) (P4 Bool) (Q4 Bool) (R4 Bool) (S4 Bool) (T4 Bool) (U4 Bool) (V4 Bool) (W4 Bool) (X4 Bool) (Y4 Bool) (Z4 Bool) (A5 Bool) (B5 Bool) (C5 Bool) (D5 Bool) (E5 Bool) (F5 Bool) (G5 Bool) (H5 Bool) (I5 Bool) (J5 Bool) (K5 Bool) (L5 Bool) (M5 Bool) (N5 Int) (O5 Bool) (P5 Bool) (Q5 Bool) (R5 Bool) (S5 Int) (T5 Bool) (U5 Bool) (V5 Bool) (W5 Bool) (X5 Bool) (Y5 Bool) (Z5 Bool) (A6 Int) (B6 Bool) (C6 Bool) (D6 Int) (E6 Bool) (F6 Bool) (G6 Bool) (H6 Bool) (I6 Bool) (J6 Int) (K6 Int) (L6 Bool) (M6 Bool) (N6 Bool) (O6 Bool) (P6 Bool) (Q6 Bool) (R6 Bool) (S6 Bool) (T6 Int) (U6 Int) (V6 Int) (W6 Bool) (X6 Bool) (Y6 Bool) (Z6 Bool) (A7 Bool) (B7 Bool) (C7 Bool) (D7 Bool) (E7 Bool) (F7 Bool) (G7 Bool) (H7 Bool) (I7 Bool) (J7 Bool) (K7 Bool) (L7 Bool) (M7 Bool) (N7 Bool) (O7 Bool) (P7 Bool) (Q7 Bool) (R7 Bool) (S7 Bool) (T7 Bool) (U7 Bool) (V7 Bool) (W7 Bool) (X7 Bool) (Y7 Bool) (Z7 Bool) (A8 Bool) (v_209 Int) (v_210 Int) ) 
    (=>
      (and
        (main_1 v_209 P2)
        (let ((a!1 (or (not P4) (not (= (<= 52 U3) G1))))
      (a!2 (or (not V3) (not (= (<= 1280 U3) Q1))))
      (a!3 (or (not S3) (not (= (<= 56 U3) R1))))
      (a!4 (or (not Q3) (not (= (<= 1 W2) S1))))
      (a!5 (or (not X2) (not (= (<= 3 W2) N2))))
      (a!6 (or (not R4) (not (= (<= 55 U3) F1))))
      (a!7 (or (not X3) (not (= (<= 1281 U3) P1)))))
  (and (= 1 v_209)
       (or (and T4 K7)
           (and J4 R7)
           (and P6 T7)
           (and L6 U7)
           (not W6)
           (and W7 Z2)
           (and V7 J5)
           (and S7 Z3)
           (and Q7 X4)
           (and P7 D5)
           (and O7 F5)
           (and M7 Z4)
           (and I7 L4)
           (and G7 B4)
           (and E7 F4)
           (and C7 D3)
           (and B7 F3)
           (and A7 H3)
           (and X6 B3)
           (and Y6 O3)
           (and Z6 M3)
           (and D7 H4)
           (and F7 D4)
           (and H7 N4)
           (and J7 V4)
           (and L7 B5)
           (and N7 H5))
       (or (and N6 S6) (not P6) (and R6 T5) (and Q6 G6))
       (or O1 (not Z3) (not C4))
       (or (not A2) (not J3) (not N3))
       (or A2 (not J3) (not P3))
       (or D2 (not H3) (not K3))
       (or F2 (not F3) (not I3))
       (or N2 (not X2) (not E3))
       (or (not N2) (not X2) (not A3))
       (or (not O2) (not Q2) (not Y2))
       (or O2 (not R3) (not Q2))
       (or M2 (not Z2) (not C3))
       (or H2 (not D3) (not G3))
       (or (not S1) (not Q3) (not T3))
       (or (not Q1) (not Y3) (not V3))
       (or I1 (not L4) (not O4))
       (or (not G1) (not P4) (not S4))
       (or C1 (not X4) (not A5))
       (or (not X7) (and W6 Z7) (and P6 Y7))
       (or (not S7) (not Z3) (not O1))
       (or (not A7) (not H3) (not D2))
       (or (not C) (not P6) (not Y7))
       (or C (not P6) (not T7))
       (or (and X5 I6) (not G6) (and H6 E6))
       (or H (not B6) (not M6))
       (or (not H) (not B6) (not F6))
       (or P (not Q5) (not W5))
       (or (not P) (not Q5) (not U5))
       (or (not U) (not Z5) (not O5))
       (or U (not R5) (not O5))
       (or S1 (not Q3) (not K5))
       (or (not G5) (not D5) Z)
       (or Y (not F5) (not I5))
       (or G1 (not P4) (not E5))
       (or (not Z4) B1 (not C5))
       (or (not T4) E1 (not W4))
       (or (not T4) (not E1) (not K7))
       (or (not R4) F1 (not Y4))
       (or (not U4) (not R4) (not F1))
       (or (not Q4) (not S3) R1)
       (or (not K4) Q1 (not V3))
       (or (not J4) J1 (not M4))
       (or (not J4) (not J1) (not R7))
       (or (not F4) L1 (not I4))
       (or (not E4) (not B4) N1)
       (or (not G4) (not X3) P1)
       (or (not A4) (not X3) (not P1))
       (or (not W3) (not S3) (not R1))
       (or (not M2) (not W7) (not Z2))
       (or (not V7) (not J5) (not W))
       (or (not C1) (not X4) (not Q7))
       (or (not P7) (not D5) (not Z))
       (or (not O7) (not F5) (not Y))
       (or (not M7) (not Z4) (not B1))
       (or (not I1) (not L4) (not I7))
       (or (not G7) (not B4) (not N1))
       (or (not E7) (not F4) (not L1))
       (or (not H2) (not D3) (not C7))
       (or (not B7) (not F3) (not F2))
       (or B (not Z7) (not W6))
       (or (not R6) (not T5) (= K U6))
       (or (not R6) (not T5) (= U6 S5))
       (or (not Q6) (not G6) (= K T6))
       (or (not Q6) (not G6) (= T6 J))
       (or (not O6) (not L5) V)
       (or (not N6) (= K V6) (not S6))
       (or (not N6) (not S6) (= V6 (- 12)))
       (or (not H6) (not E6) (= J J6))
       (or (not H6) (not E6) (= J6 D6))
       (or (not X5) (and V5 Y5) (and O5 Z5))
       (or (not X5) I (not C6))
       (or (not I6) (not X5) (= J K6))
       (or (not I6) (not X5) (= K6 A6))
       (or (not I6) (not X5) (not I))
       (or (not P5) (not L5) (not V))
       (or (not M5) (not J5) W)
       (or (not S2) (and T2 R2))
       (or (not R2) (and A8 X7))
       (or (not D5) (= Z (= U3 50)))
       (or (not D5) (and E5 P4))
       (or (not B5) (and Z4 C5))
       (or (not X4) (= C1 (= U3 52)))
       (or (not X4) (and R4 Y4))
       (or (not V4) (and T4 W4))
       a!1
       (or (not P4) (and Q4 S3))
       (or (not L4) (= I1 (= H1 241)))
       (or (not L4) (and J4 M4))
       (or (not H4) (and F4 I4))
       (or (not D4) (and B4 E4))
       (or (not Z3) (= O1 (= U3 1281)))
       (or (not Z3) (and X3 A4))
       a!2
       (or (not V3) (and W3 S3))
       a!3
       (or (not S3) (and Q3 T3))
       a!4
       (or (not Q3) (and R3 Q2))
       (or (not O3) (= V1 U1))
       (or (not O3) (= U1 (+ 1 T1)))
       (or (not O3) (= T1 L3))
       (or (not O3) (and J3 P3))
       (or (not M3) (= Y1 X1))
       (or (not M3) (= X1 (+ 1 W1)))
       (or (not M3) (= W1 L3))
       (or (not M3) (and J3 N3))
       (or (not J3) (= A2 (= Z1 0)))
       (or (not J3) (and H3 K3))
       (or (not H3) (= D2 (and C2 P2)))
       (or (not H3) (= C2 (= B2 16)))
       (or (not H3) (and F3 I3))
       (or (not F3) (= F2 (= E2 0)))
       (or (not F3) (and D3 G3))
       (or (not D3) (= H2 (= G2 56)))
       (or (not D3) (and X2 E3))
       (or (not B3) (= K2 (+ 8 J2)))
       (or (not B3) (= J2 I2))
       (or (not B3) (= L2 K2))
       (or (not B3) (and Z2 C3))
       (or (not Z2) (= M2 (= W2 3)))
       (or (not Z2) (and X2 A3))
       a!5
       (or (not X2) (and Q2 Y2))
       (or (not U2) (and V2 S2))
       (or (not P6) (= C (= K 0)))
       (or (not E6) (= G F))
       (or (not E6) (= F (+ 8 E)))
       (or (not E6) (= E D))
       (or (not E6) (and B6 F6))
       (or (not B6) (= H (= D6 0)))
       (or (not B6) (and X5 C6))
       (or (not V5) (and Q5 W5))
       (or (not T5) (and Q5 U5))
       (or (not Q5) (= P (= S5 0)))
       (or (not Q5) (= O N))
       (or (not Q5) (= N (+ 48 M)))
       (or (not Q5) (= M L))
       (or (not Q5) (and O5 R5))
       (or (not O5) (= U (= T 0)))
       (or (not O5) (= S R))
       (or (not O5) (= R (+ 1 Q)))
       (or (not O5) (= Q N5))
       (or (not O5) (and P5 L5))
       (or (not L5) (= V (= N5 0)))
       (or (not L5) (and M5 J5))
       (or (not J5) (= W (= W2 0)))
       (or (not J5) (and K5 Q3))
       (or (not H5) (and F5 I5))
       (or (not F5) (= Y (= X 222)))
       (or (not F5) (and G5 D5))
       (or (not Z4) (= B1 (= A1 269)))
       (or (not Z4) (and X4 A5))
       (or (not T4) (= E1 (= D1 241)))
       (or (not T4) (and R4 U4))
       a!6
       (or (not R4) (and P4 S4))
       (or (not N4) (and L4 O4))
       (or (not J4) (= J1 (= U3 56)))
       (or (not J4) (and K4 V3))
       (or (not F4) (= L1 (= K1 309)))
       (or (not F4) (and X3 G4))
       (or (not B4) (= N1 (= M1 300)))
       (or (not B4) (and Z3 C4))
       a!7
       (or (not X3) (and V3 Y3))
       (or (not W6) (= B (= A 0)))
       (or (not N6) (and O6 L5))
       (or (not L6) (and B6 M6))
       (or (not X5) (= I (= A6 0)))
       (not S2)
       (= U2 true)
       (not (= (<= 2 W2) O2))
       (= 2 v_210)))
      )
      (main_1 v_210 P2)
    )
  )
)
(assert
  (forall ( (A Bool) (v_1 Int) ) 
    (=>
      (and
        (main_1 v_1 A)
        (= 2 v_1)
      )
      false
    )
  )
)

(check-sat)
(exit)
